; benchmark generated from python API
(set-info :status unknown)
(declare-fun strlen_72_64 () (_ BitVec 64))
(declare-fun args_0_8 () (_ BitVec 8))
(declare-fun strlen_75_64 () (_ BitVec 64))
(declare-fun args_1_8 () (_ BitVec 8))
(declare-fun sigaction_oldact_171_1216 () (_ BitVec 1216))
(declare-fun sigaction_oldact_175_1216 () (_ BitVec 1216))
(declare-fun sigaction_oldact_184_1216 () (_ BitVec 1216))
(declare-fun sigaction_oldact_196_1216 () (_ BitVec 1216))
(declare-fun sigaction_oldact_222_1216 () (_ BitVec 1216))
(declare-fun sigaction_oldact_278_1216 () (_ BitVec 1216))
(declare-fun sigaction_oldact_374_1216 () (_ BitVec 1216))
(declare-fun sigaction_oldact_555_1216 () (_ BitVec 1216))
(declare-fun sigaction_oldact_897_1216 () (_ BitVec 1216))
(declare-fun sigaction_oldact_1551_1216 () (_ BitVec 1216))
(declare-fun sigaction_oldact_2808_1216 () (_ BitVec 1216))
(assert
 (let (($x351 (= (_ bv1 64) strlen_72_64)))
 (not $x351)))
(assert
 (let ((?x82 (bvadd (_ bv576460752303357824 64) strlen_72_64)))
 (let (($x69 (= (_ bv0 8) args_0_8)))
 (let ((?x46 (ite $x69 (_ bv576460752303357824 64) (_ bv576460752303357825 64))))
 (= ?x46 ?x82)))))
(assert
 (let (($x347 (= (_ bv0 8) args_1_8)))
 (let ((?x355 (ite $x347 (_ bv576460752303357826 64) (_ bv576460752303357827 64))))
 (let ((?x356 (bvsub ?x355 (_ bv576460752303357826 64))))
 (= ?x356 strlen_75_64)))))
(assert
 (let ((?x1831 ((_ extract 127 120) sigaction_oldact_171_1216)))
 (let ((?x2319 (bvand ?x1831 (_ bv4 8))))
 (= (_ bv0 8) ?x2319))))
(assert
 (let ((?x2264 ((_ extract 127 120) sigaction_oldact_175_1216)))
 (let ((?x2349 (bvand ?x2264 (_ bv4 8))))
 (= (_ bv0 8) ?x2349))))
(assert
 (let ((?x2642 ((_ extract 127 120) sigaction_oldact_184_1216)))
 (let ((?x2659 (bvand ?x2642 (_ bv4 8))))
 (= (_ bv0 8) ?x2659))))
(assert
 (let ((?x3333 ((_ extract 127 120) sigaction_oldact_196_1216)))
 (let ((?x3353 (bvand ?x3333 (_ bv4 8))))
 (and (distinct (_ bv0 8) ?x3353) true))))
(assert
 (let ((?x5096 ((_ extract 127 120) sigaction_oldact_222_1216)))
 (let ((?x5116 (bvand ?x5096 (_ bv4 8))))
 (and (distinct (_ bv0 8) ?x5116) true))))
(assert
 (let ((?x8725 ((_ extract 127 120) sigaction_oldact_278_1216)))
 (let ((?x8750 (bvand ?x8725 (_ bv4 8))))
 (= (_ bv0 8) ?x8750))))
(assert
 (let ((?x15264 ((_ extract 127 120) sigaction_oldact_374_1216)))
 (let ((?x15281 (bvand ?x15264 (_ bv4 8))))
 (= (_ bv0 8) ?x15281))))
(assert
 (let ((?x28433 ((_ extract 127 120) sigaction_oldact_555_1216)))
 (let ((?x28458 (bvand ?x28433 (_ bv4 8))))
 (= (_ bv0 8) ?x28458))))
(assert
 (let ((?x51501 ((_ extract 127 120) sigaction_oldact_897_1216)))
 (let ((?x51507 (bvand ?x51501 (_ bv4 8))))
 (= (_ bv0 8) ?x51507))))
(assert
 (let ((?x88636 ((_ extract 127 120) sigaction_oldact_1551_1216)))
 (let ((?x51464 (bvand ?x88636 (_ bv4 8))))
 (= (_ bv0 8) ?x51464))))
(assert
 (let ((?x160133 ((_ extract 127 120) sigaction_oldact_2808_1216)))
 (let ((?x160149 (bvand ?x160133 (_ bv4 8))))
 (and (distinct (_ bv0 8) ?x160149) true))))
(maximize sigaction_oldact_184_1216)
(maximize sigaction_oldact_278_1216)
(maximize sigaction_oldact_222_1216)
(minimize sigaction_oldact_1551_1216)
(minimize args_0_8)
(maximize strlen_75_64)
(minimize sigaction_oldact_278_1216)
(minimize sigaction_oldact_555_1216)
(minimize sigaction_oldact_374_1216)
(maximize sigaction_oldact_897_1216)
(maximize sigaction_oldact_1551_1216)
(maximize args_1_8)
(check-sat)
(get-objectives)
